90600095 -1 0
116414975 -2 0
96863209 3 0
h 4 -5 0
144954413 6 0
61132113 -7 0
51172582 -8 7 -6 0
118077786 -9 0
146164874 -10 0
51329076 -11 0
122876929 -12 0
144971361 -4 0
72983126 11 0
56651281 7 0
139579059 -2 0
126215538 2 0
148527506 -7 0
96391747 13 0
132670960 -11 0
84191715 -12 0
103603516 -11 0
149334713 5 0
141084609 -12 0
27150019 14 0
26743839 -2 0
99475313 6 0
35245840 6 0
110166444 6 0
143938730 15 0
48807782 16 0
66723554 12 0
45746615 -6 0
53898079 -5 0
108947410 17 0
56137431 18 7 0
83510819 2 0
57386786 19 0
43669182 -20 0
100768690 -5 0
133283923 7 0
99891124 7 0
44988677 2 0
140055766 21 0
120793147 18 0
21237379 12 0
8101576 -11 0
81507801 -5 0
141115407 -7 -22 0
h 5 -7 0
h 7 8 0
